data/analysis/db/vc-exact_091.hgr
c smth
s vc 200 135
196
195
193
192
191
190
188
187
183
182
181
179
177
175
174
173
172
169
168
166
164
163
161
160
158
157
156
153
152
150
149
148
147
146
144
142
140
139
136
132
131
129
128
127
126
125
124
122
121
118
117
116
115
113
112
111
109
107
104
102
101
100
98
97
96
94
93
92
90
88
87
86
85
84
82
79
78
77
76
75
73
72
71
70
69
68
67
66
63
59
57
55
53
52
50
49
48
46
45
44
43
42
41
40
39
38
36
35
34
33
32
30
29
27
26
24
23
22
21
20
19
17
16
15
13
12
11
10
9
7
6
5
4
3
1