data/analysis/db/vc-exact_091.gr
c smth
s vc 200 145
198
197
196
195
191
189
186
183
182
181
180
179
178
177
176
174
173
171
170
169
168
166
165
163
160
159
158
157
156
155
154
153
152
151
150
149
148
145
144
142
141
140
139
138
137
134
132
131
129
127
125
124
122
121
119
118
117
116
115
113
112
110
109
108
107
105
104
103
102
101
99
97
96
95
91
90
89
88
87
86
84
83
82
81
80
79
78
76
75
74
72
70
69
68
67
66
65
63
62
61
60
58
57
55
54
53
51
50
49
46
44
43
41
40
39
38
36
35
33
32
31
30
29
28
27
26
25
24
21
20
19
18
17
16
15
13
11
10
9
7
6
4
3
2
1